p edge 40 91
e 1 2
e 1 7
e 1 8
e 1 32
e 2 12
e 2 15
e 2 21
e 3 24
e 3 35
e 3 36
e 3 37
e 4 26
e 4 38
e 5 10
e 5 13
e 5 17
e 5 26
e 5 27
e 5 28
e 5 37
e 5 38
e 6 14
e 6 38
e 7 12
e 7 13
e 7 14
e 7 21
e 7 22
e 7 27
e 8 9
e 8 36
e 9 28
e 9 38
e 10 13
e 10 17
e 10 20
e 11 12
e 11 19
e 11 30
e 11 37
e 12 31
e 12 35
e 13 24
e 13 26
e 13 33
e 13 36
e 13 37
e 13 39
e 14 16
e 14 17
e 14 18
e 14 19
e 14 20
e 15 32
e 15 33
e 16 17
e 17 25
e 17 27
e 17 28
e 17 39
e 18 20
e 18 31
e 19 21
e 19 24
e 19 25
e 19 35
e 20 33
e 20 38
e 21 31
e 21 36
e 22 23
e 22 29
e 22 32
e 22 38
e 23 32
e 24 30
e 24 39
e 25 28
e 25 30
e 26 32
e 27 38
e 28 31
e 30 40
e 31 35
e 32 36
e 32 37
e 33 38
e 35 39
e 35 40
e 36 38
e 36 39
